c	Created in graph generator tool by Shahar Bardugo & Dorin Matzrafi
c
p	sp 20 20
c	graph contains 20 nodes and 20 arcs
c
a	1	2	4
a	6	2	16
a	4	8	2
a	1	13	10
a	14	2	18
a	9	8	14
a	8	10	8
a	1	18	14
a	3	16	9
a	8	11	9
a	14	3	8
a	14	4	1
a	13	11	6
a	17	5	2
a	16	9	8
a	17	12	13
a	14	15	9
a	15	14	11
a	11	20	7
a	17	16	9
